c t wmc
c file mc2022_track2_015.cnf
p cnf 70 368
-32 16 42 -5 52 0
29 -33 -62 32 -16 0
64 19 -2 31 58 0
-54 -59 65 68 -38 0
-54 59 65 -68 -38 0
-8 21 -17 34 15 0
-22 -14 26 -61 -55 0
41 48 -4 49 67 0
-50 23 -12 24 -1 0
44 39 -53 -69 11 0
69 -11 -45 -18 -7 0
-30 9 37 -28 54 0
-27 -6 -3 -8 21 0
-8 -21 -17 -34 15 0
-34 -15 -20 30 9 0
-24 1 -56 41 48 0
-24 -1 56 41 48 0
-25 -36 -47 -10 -51 0
61 55 -35 -50 23 0
-44 -39 53 -69 -11 0
22 14 26 61 55 0
41 -48 4 49 67 0
34 15 20 30 -9 0
24 -1 56 -41 48 0
68 -38 -46 -70 43 0
68 -38 46 -70 -43 0
25 -36 -47 -10 51 0
-29 33 62 32 16 0
25 -36 47 -10 -51 0
10 51 -63 22 14 0
-34 -15 20 30 -9 0
-54 59 -65 68 -38 0
8 21 -17 34 -15 0
70 43 13 -64 -19 0
-41 48 -4 -49 67 0
-30 -9 -37 28 -54 0
50 23 12 -24 1 0
32 16 42 -5 -52 0
5 52 -57 -44 -39 0
-69 11 -45 -18 -7 0
29 -33 -62 -32 16 0
41 -48 4 -49 -67 0
-49 67 60 27 -6 0
-44 39 53 69 -11 0
-61 55 -35 50 23 0
22 14 26 -61 -55 0
5 -52 57 44 39 0
-64 19 -2 -31 58 0
-27 6 -3 -8 -21 0
29 33 -62 -32 -16 0
31 -58 66 -29 33 0
22 -14 26 -61 55 0
-64 19 2 31 58 0
-61 55 -35 -50 -23 0
29 -33 62 -32 -16 0
27 6 3 -8 -21 0
-34 -15 -20 -30 -9 0
-8 21 -17 -34 -15 0
8 21 17 -34 -15 0
44 -39 53 -69 11 0
-31 -58 66 -29 -33 0
10 -51 -63 -22 14 0
27 -6 3 8 -21 0
-32 16 42 5 -52 0
50 -23 -12 -24 1 0
-54 -59 -65 68 38 0
-50 23 -12 -24 1 0
34 -15 20 30 9 0
68 38 46 -70 43 0
-5 52 -57 -44 39 0
-69 11 45 -18 7 0
32 16 -42 5 -52 0
54 59 -65 -68 -38 0
24 1 56 41 48 0
8 -21 17 -34 15 0
24 1 -56 41 -48 0
-41 48 4 -49 -67 0
69 -11 -45 18 7 0
-50 -23 -12 -24 -1 0
54 59 65 68 -38 0
-70 -43 13 64 19 0
-31 58 66 29 -33 0
-64 -19 -2 31 58 0
-22 -14 -26 61 -55 0
34 15 -20 30 9 0
5 -52 -57 44 -39 0
30 9 -37 -28 54 0
24 -1 -56 41 48 0
30 -9 37 -28 54 0
29 33 62 -32 16 0
-30 -9 37 28 54 0
32 -16 -42 -5 -52 0
-69 -11 45 -18 -7 0
30 -9 37 28 -54 0
27 6 -3 -8 21 0
70 -43 -13 64 19 0
44 39 53 69 11 0
54 59 65 -68 38 0
18 7 -40 -25 36 0
64 19 2 31 -58 0
61 55 35 -50 -23 0
-49 67 -60 -27 -6 0
30 9 37 -28 -54 0
61 -55 35 -50 23 0
-34 15 -20 30 -9 0
-68 38 -46 70 -43 0
-10 51 -63 22 -14 0
44 -39 -53 69 11 0
64 -19 -2 -31 58 0
-34 -15 20 -30 9 0
-44 39 -53 69 11 0
31 -58 -66 -29 -33 0
61 -55 -35 -50 -23 0
22 -14 -26 61 55 0
64 -19 2 31 58 0
41 48 4 49 -67 0
54 -59 -65 68 -38 0
-18 -7 -40 25 -36 0
41 -48 -4 -49 67 0
-30 -9 37 -28 -54 0
-8 -21 17 -34 -15 0
69 -11 45 18 -7 0
30 9 37 28 54 0
64 19 -2 -31 -58 0
70 -43 -13 -64 -19 0
-29 -33 62 32 -16 0
44 -39 53 69 -11 0
-61 -55 35 -50 -23 0
50 23 -12 -24 -1 0
61 55 35 50 23 0
54 -59 65 -68 -38 0
-41 -48 4 49 -67 0
-25 36 47 -10 -51 0
70 -43 13 64 -19 0
25 36 47 10 -51 0
-32 16 -42 5 52 0
-49 -67 -60 27 -6 0
-22 -14 -26 -61 55 0
-8 21 17 -34 15 0
-61 -55 35 50 23 0
27 -6 -3 8 21 0
-49 -67 -60 -27 6 0
49 67 60 27 6 0
-41 48 -4 49 -67 0
-31 58 -66 -29 -33 0
-29 33 62 -32 -16 0
32 -16 -42 5 52 0
25 36 47 -10 51 0
10 51 63 22 -14 0
32 16 -42 -5 52 0
-54 59 65 68 38 0
61 -55 35 50 -23 0
-50 23 12 -24 -1 0
-34 15 -20 -30 9 0
69 11 45 18 7 0
-25 36 -47 10 -51 0
-68 -38 -46 -70 -43 0
31 -58 66 29 -33 0
24 -1 56 41 -48 0
22 14 -26 61 -55 0
-68 -38 -46 70 43 0
27 -6 3 -8 21 0
-24 -1 -56 -41 48 0
-34 15 20 -30 -9 0
10 -51 63 -22 -14 0
-69 -11 -45 18 -7 0
-64 19 2 -31 -58 0
25 36 -47 10 51 0
18 7 40 -25 -36 0
-25 36 47 10 51 0
18 -7 -40 25 36 0
24 -1 -56 -41 -48 0
70 43 -13 -64 19 0
-70 43 13 64 -19 0
31 58 66 -29 -33 0
-64 -19 2 -31 58 0
22 -14 26 61 -55 0
-5 52 57 -44 -39 0
-32 -16 -42 5 -52 0
-44 39 -53 -69 -11 0
44 -39 -53 -69 -11 0
31 58 -66 -29 33 0
-29 -33 -62 32 16 0
-31 -58 -66 -29 33 0
18 7 -40 25 -36 0
-27 -6 -3 8 -21 0
-68 -38 46 -70 43 0
10 -51 -63 22 -14 0
-54 59 -65 -68 38 0
5 52 57 -44 39 0
29 33 62 32 -16 0
-31 58 -66 29 33 0
-70 -43 -13 -64 19 0
-64 19 -2 31 -58 0
-8 21 17 34 -15 0
-25 -36 -47 10 51 0
64 -19 -2 31 -58 0
-69 -11 -45 -18 7 0
24 1 56 -41 -48 0
27 6 3 8 21 0
10 51 63 -22 14 0
68 -38 46 70 43 0
-30 9 -37 28 54 0
-49 67 60 -27 6 0
-50 -23 12 -24 1 0
44 39 -53 69 -11 0
-70 43 13 -64 19 0
54 59 -65 68 38 0
50 23 -12 24 1 0
25 -36 -47 10 -51 0
-41 -48 -4 -49 -67 0
-22 -14 26 61 55 0
-10 51 63 22 14 0
18 -7 40 -25 36 0
68 38 -46 -70 -43 0
68 38 46 70 -43 0
-70 43 -13 -64 -19 0
49 67 -60 27 -6 0
-69 11 45 18 -7 0
29 33 -62 32 16 0
-70 43 -13 64 19 0
-22 14 -26 61 55 0
24 1 -56 -41 48 0
-5 -52 57 44 -39 0
-29 33 -62 -32 16 0
69 11 45 -18 -7 0
-41 -48 -4 49 67 0
-25 36 -47 -10 51 0
32 -16 42 5 -52 0
-8 -21 -17 34 -15 0
-25 -36 47 10 -51 0
-5 52 57 44 39 0
27 6 -3 8 -21 0
-25 -36 47 -10 51 0
-5 -52 -57 -44 -39 0
41 48 -4 -49 -67 0
70 -43 13 -64 19 0
-5 52 -57 44 -39 0
-68 38 -46 -70 43 0
31 58 -66 29 -33 0
27 -6 -3 -8 -21 0
-27 -6 3 -8 -21 0
-10 -51 -63 22 14 0
-18 7 40 -25 36 0
-24 1 56 -41 48 0
69 -11 45 -18 7 0
-10 -51 63 -22 14 0
30 9 -37 28 -54 0
8 21 -17 -34 15 0
-27 6 3 8 -21 0
-44 39 53 -69 11 0
-64 -19 2 31 -58 0
69 11 -45 -18 7 0
-54 -59 65 -68 38 0
31 -58 -66 29 33 0
30 -9 -37 -28 -54 0
-29 -33 62 -32 16 0
-49 -67 60 -27 -6 0
-5 -52 -57 44 39 0
-18 -7 40 25 36 0
-10 51 63 -22 -14 0
-30 -9 -37 -28 54 0
-18 -7 -40 -25 36 0
-41 -48 4 -49 67 0
34 15 20 -30 9 0
-22 14 26 -61 55 0
54 -59 65 68 38 0
5 -52 57 -44 -39 0
-50 23 12 24 1 0
-61 55 35 -50 23 0
-32 16 -42 -5 -52 0
49 -67 -60 -27 -6 0
49 -67 60 -27 6 0
49 -67 -60 27 6 0
-8 -21 17 34 15 0
-44 -39 -53 69 -11 0
70 43 -13 64 -19 0
32 -16 42 -5 52 0
25 -36 47 10 51 0
22 14 -26 -61 55 0
-61 -55 -35 50 -23 0
-27 6 -3 8 21 0
-44 -39 53 69 11 0
-29 -33 -62 -32 -16 0
8 -21 -17 -34 -15 0
70 43 13 64 19 0
29 -33 62 32 16 0
50 -23 -12 24 -1 0
-10 51 -63 -22 14 0
-5 -52 57 -44 39 0
50 -23 12 24 1 0
-18 7 40 25 -36 0
49 -67 60 27 -6 0
-50 -23 12 24 -1 0
25 36 -47 -10 -51 0
49 67 -60 -27 6 0
-27 6 3 -8 21 0
64 -19 2 -31 -58 0
68 38 -46 70 43 0
-69 -11 45 18 7 0
8 21 17 34 15 0
-22 14 26 61 -55 0
-41 48 4 49 67 0
10 -51 63 22 14 0
-29 33 -62 32 -16 0
-31 -58 66 29 33 0
-68 38 46 -70 -43 0
41 48 4 -49 67 0
64 19 2 -31 58 0
31 58 66 29 33 0
34 -15 -20 30 -9 0
-18 7 -40 25 36 0
-68 -38 46 70 -43 0
-69 11 -45 18 7 0
-24 -1 56 -41 -48 0
-32 -16 42 -5 -52 0
5 52 -57 44 39 0
-10 -51 -63 -22 -14 0
-49 -67 60 27 6 0
61 -55 -35 50 23 0
44 39 53 -69 -11 0
-18 -7 40 -25 -36 0
-49 67 -60 27 6 0
-31 -58 -66 29 -33 0
34 -15 -20 -30 9 0
34 -15 20 -30 -9 0
-61 -55 -35 -50 23 0
-24 1 -56 -41 -48 0
-30 9 -37 -28 -54 0
54 -59 -65 -68 38 0
18 -7 40 25 -36 0
-32 -16 -42 -5 52 0
-27 -6 3 8 21 0
-44 -39 -53 -69 11 0
34 15 -20 -30 -9 0
-31 58 66 -29 33 0
8 -21 17 34 -15 0
5 -52 -57 -44 39 0
8 -21 -17 34 15 0
50 23 12 24 -1 0
-10 -51 63 22 -14 0
50 -23 12 -24 -1 0
-54 -59 -65 -68 -38 0
-70 -43 13 -64 -19 0
-30 9 37 28 -54 0
69 11 -45 18 -7 0
32 16 42 5 52 0
-24 -1 -56 41 -48 0
-68 38 46 70 43 0
30 -9 -37 28 54 0
22 -14 -26 -61 -55 0
-18 7 -40 -25 -36 0
41 -48 -4 49 -67 0
61 55 -35 50 -23 0
-34 15 20 30 9 0
-61 55 35 50 -23 0
-64 -19 -2 -31 -58 0
68 -38 -46 70 -43 0
-22 14 -26 -61 -55 0
18 -7 -40 -25 -36 0
49 67 60 -27 -6 0
5 52 57 44 -39 0
-50 -23 -12 24 1 0
-32 -16 42 5 52 0
-24 1 56 41 -48 0
-70 -43 -13 64 -19 0
10 51 -63 -22 -14 0
18 7 40 25 36 0
c p weight 1 0.99312733 0
c p weight -1 0.00687267 0
c p weight 2 0.01784614 0
c p weight -2 0.98215386 0
c p weight 3 0.98010505 0
c p weight -3 0.01989495 0
c p weight 4 0.00561295 0
c p weight -4 0.99438705 0
c p weight 5 0.99644621 0
c p weight -5 0.00355379 0
c p weight 6 0.98294316 0
c p weight -6 0.01705684 0
c p weight 7 0.99868758 0
c p weight -7 0.00131242 0
c p weight 8 0.98436669 0
c p weight -8 0.01563331 0
c p weight 9 0.9878814 0
c p weight -9 0.0121186 0
c p weight 10 0.99209804 0
c p weight -10 0.00790196 0
c p weight 11 0.98121549 0
c p weight -11 0.01878451 0
c p weight 12 0.01887116 0
c p weight -12 0.98112884 0
c p weight 13 0.9966131 0
c p weight -13 0.0033869 0
c p weight 14 0.99473181 0
c p weight -14 0.00526819 0
c p weight 15 0.998171 0
c p weight -15 0.001829 0
c p weight 16 0.99376739 0
c p weight -16 0.00623261 0
c p weight 17 0.98644642 0
c p weight -17 0.01355358 0
c p weight 18 0.98661993 0
c p weight -18 0.01338007 0
c p weight 19 0.99121952 0
c p weight -19 0.00878048 0
c p weight 20 0.01307968 0
c p weight -20 0.98692032 0
c p weight 21 0.99535796 0
c p weight -21 0.00464204 0
c p weight 22 0.99202501 0
c p weight -22 0.00797499 0
c p weight 23 0.99873181 0
c p weight -23 0.00126819 0
c p weight 24 0.98211373 0
c p weight -24 0.01788627 0
c p weight 25 0.98975235 0
c p weight -25 0.01024765 0
c p weight 26 0.98790662 0
c p weight -26 0.01209338 0
c p weight 27 0.99947359 0
c p weight -27 0.00052641 0
c p weight 28 0.98206498 0
c p weight -28 0.01793502 0
c p weight 29 0.98640116 0
c p weight -29 0.01359884 0
c p weight 30 0.99728423 0
c p weight -30 0.00271577 0
c p weight 31 0.99215747 0
c p weight -31 0.00784253 0
c p weight 32 0.98891104 0
c p weight -32 0.01108896 0
c p weight 33 0.99319127 0
c p weight -33 0.00680873 0
c p weight 34 0.99612632 0
c p weight -34 0.00387368 0
c p weight 35 0.98473582 0
c p weight -35 0.01526418 0
c p weight 36 0.99574657 0
c p weight -36 0.00425343 0
c p weight 37 0.98732173 0
c p weight -37 0.01267827 0
c p weight 38 0.99461671 0
c p weight -38 0.00538329 0
c p weight 39 0.98504397 0
c p weight -39 0.01495603 0
c p weight 40 0.98321481 0
c p weight -40 0.01678519 0
c p weight 41 0.99377845 0
c p weight -41 0.00622155 0
c p weight 42 0.98453512 0
c p weight -42 0.01546488 0
c p weight 43 0.99292197 0
c p weight -43 0.00707803 0
c p weight 44 0.98152719 0
c p weight -44 0.01847281 0
c p weight 45 0.99104151 0
c p weight -45 0.00895849 0
c p weight 46 0.00418742 0
c p weight -46 0.99581258 0
c p weight 47 0.01942267 0
c p weight -47 0.98057733 0
c p weight 48 0.98433578 0
c p weight -48 0.01566422 0
c p weight 49 0.98647863 0
c p weight -49 0.01352137 0
c p weight 50 0.98480676 0
c p weight -50 0.01519324 0
c p weight 51 0.99707806 0
c p weight -51 0.00292194 0
c p weight 52 0.99904866 0
c p weight -52 0.00095134 0
c p weight 53 0.99301739 0
c p weight -53 0.00698261 0
c p weight 54 0.99746048 0
c p weight -54 0.00253952 0
c p weight 55 0.98821643 0
c p weight -55 0.01178357 0
c p weight 56 0.99985053 0
c p weight -56 0.00014947 0
c p weight 57 0.01819161 0
c p weight -57 0.98180839 0
c p weight 58 0.99616349 0
c p weight -58 0.00383651 0
c p weight 59 0.9971339 0
c p weight -59 0.0028661 0
c p weight 60 0.99259835 0
c p weight -60 0.00740165 0
c p weight 61 0.99385726 0
c p weight -61 0.00614274 0
c p weight 62 0.01673822 0
c p weight -62 0.98326178 0
c p weight 63 0.01676684 0
c p weight -63 0.98323316 0
c p weight 64 0.99435762 0
c p weight -64 0.00564238 0
c p weight 65 0.00681763 0
c p weight -65 0.99318237 0
c p weight 66 0.99557012 0
c p weight -66 0.00442988 0
c p weight 67 0.98727256 0
c p weight -67 0.01272744 0
c p weight 68 0.99327302 0
c p weight -68 0.00672698 0
c p weight 69 0.99271984 0
c p weight -69 0.00728016 0
c p weight 70 0.99638498 0
c p weight -70 0.00361502 0
